benchmarks/INST_36x36/15/inst36x36_15_11.txt
6
1
-1	-1	-1	-1	-1	-1	-1	-1	-1	22	-1	-1	-1	-1	15	-1	-1	-1	-1	-1	-1	-1	-1	-1	4	-1	-1	32	-1	-1	-1	-1	-1	-1	-1	-1
-1	27	-1	-1	-1	-1	-1	34	-1	-1	-1	-1	-1	10	-1	14	-1	-1	-1	-1	-1	-1	-1	28	-1	-1	16	-1	-1	-1	-1	-1	-1	-1	33	-1
-1	-1	-1	-1	-1	-1	-1	-1	-1	26	-1	-1	-1	-1	24	-1	-1	-1	-1	-1	-1	-1	30	-1	-1	-1	-1	-1	19	-1	-1	-1	-1	-1	18	-1
-1	-1	-1	-1	4	-1	-1	-1	-1	-1	-1	-1	-1	21	-1	-1	-1	-1	-1	-1	-1	-1	-1	-1	-1	7	30	-1	-1	-1	-1	-1	-1	-1	-1	-1
-1	-1	-1	-1	-1	-1	-1	20	19	-1	36	31	18	-1	-1	-1	-1	-1	-1	-1	12	-1	-1	-1	-1	-1	-1	-1	-1	-1	-1	-1	-1	-1	-1	-1
-1	31	-1	-1	-1	-1	-1	-1	-1	-1	-1	-1	-1	-1	-1	-1	-1	11	-1	-1	-1	-1	-1	-1	-1	-1	-1	-1	-1	-1	-1	-1	-1	-1	-1	-1
-1	-1	11	-1	-1	12	-1	21	-1	-1	-1	-1	-1	-1	8	-1	-1	-1	-1	-1	-1	-1	25	24	-1	15	-1	-1	-1	-1	-1	-1	-1	-1	-1	-1
-1	14	-1	-1	19	-1	-1	-1	-1	-1	-1	-1	-1	-1	-1	-1	-1	5	-1	-1	-1	-1	-1	-1	-1	-1	-1	-1	-1	17	-1	15	-1	32	-1	-1
2	-1	-1	-1	-1	-1	-1	-1	-1	-1	-1	35	-1	-1	-1	-1	-1	32	-1	-1	15	10	-1	-1	-1	-1	6	-1	-1	-1	-1	-1	-1	13	-1	-1
-1	4	-1	-1	-1	-1	-1	-1	20	24	18	-1	30	-1	-1	-1	15	33	-1	-1	-1	-1	-1	-1	-1	-1	-1	-1	-1	-1	-1	-1	8	-1	-1	-1
-1	-1	-1	-1	-1	-1	1	2	-1	-1	-1	8	-1	-1	26	-1	6	-1	-1	-1	-1	-1	-1	-1	-1	-1	-1	-1	-1	36	-1	-1	-1	-1	-1	-1
26	-1	-1	-1	-1	20	10	17	-1	-1	-1	-1	-1	-1	-1	25	-1	-1	-1	-1	-1	-1	16	29	-1	-1	-1	-1	-1	-1	-1	-1	-1	-1	-1	-1
-1	-1	-1	-1	-1	-1	-1	18	-1	16	-1	-1	-1	-1	-1	-1	-1	-1	-1	-1	-1	-1	-1	-1	-1	-1	-1	-1	-1	-1	-1	35	-1	-1	-1	-1
-1	-1	-1	-1	-1	-1	-1	-1	28	-1	-1	-1	-1	-1	-1	16	-1	18	-1	-1	33	-1	-1	-1	-1	-1	-1	-1	32	-1	-1	-1	-1	-1	-1	-1
-1	34	-1	-1	-1	-1	-1	-1	-1	-1	21	-1	-1	-1	-1	-1	13	-1	-1	-1	-1	-1	-1	3	-1	-1	-1	-1	-1	-1	-1	-1	-1	-1	-1	-1
-1	-1	-1	-1	-1	-1	-1	-1	-1	12	-1	-1	-1	-1	-1	-1	-1	-1	31	-1	-1	25	-1	-1	-1	-1	-1	-1	-1	19	33	-1	-1	-1	-1	-1
-1	-1	-1	-1	32	-1	-1	-1	3	-1	-1	19	-1	-1	-1	31	-1	-1	-1	-1	-1	-1	-1	-1	-1	-1	-1	-1	-1	26	18	-1	-1	-1	-1	-1
-1	26	-1	-1	-1	-1	-1	-1	-1	-1	8	-1	2	-1	-1	-1	-1	-1	-1	-1	-1	-1	-1	9	14	-1	-1	-1	-1	-1	-1	-1	-1	-1	-1	12
27	-1	18	-1	-1	-1	-1	-1	-1	-1	-1	-1	28	-1	-1	-1	-1	-1	-1	-1	-1	-1	17	-1	-1	-1	-1	-1	-1	3	-1	-1	-1	-1	-1	-1
-1	-1	-1	-1	-1	-1	-1	-1	-1	33	-1	-1	-1	-1	-1	-1	-1	-1	-1	-1	-1	-1	-1	-1	-1	-1	-1	-1	34	-1	-1	-1	-1	-1	-1	-1
-1	-1	-1	-1	-1	24	15	-1	-1	-1	-1	21	-1	34	-1	-1	-1	-1	-1	10	11	-1	-1	32	-1	-1	-1	-1	-1	18	1	-1	-1	-1	-1	-1
-1	-1	-1	-1	-1	-1	27	-1	-1	-1	-1	-1	13	-1	-1	-1	-1	-1	-1	-1	-1	-1	-1	-1	-1	-1	-1	-1	-1	-1	-1	-1	-1	35	-1	-1
16	-1	-1	-1	-1	-1	-1	-1	30	-1	-1	-1	24	-1	-1	-1	-1	-1	-1	-1	-1	-1	-1	-1	36	-1	-1	-1	-1	-1	-1	-1	-1	23	-1	-1
-1	-1	-1	-1	-1	-1	-1	-1	-1	-1	-1	10	-1	-1	-1	21	-1	30	-1	-1	4	13	-1	-1	8	-1	-1	-1	-1	-1	7	-1	-1	-1	-1	20
-1	-1	-1	-1	-1	-1	-1	-1	-1	-1	31	-1	-1	-1	-1	-1	-1	29	-1	-1	-1	-1	-1	-1	-1	-1	-1	-1	-1	-1	-1	2	-1	-1	27	-1
-1	-1	-1	-1	-1	-1	17	-1	-1	13	-1	-1	-1	-1	-1	-1	-1	34	-1	-1	-1	-1	-1	20	-1	-1	-1	-1	-1	-1	-1	-1	6	-1	-1	-1
-1	-1	-1	-1	-1	-1	11	-1	-1	29	-1	-1	-1	-1	-1	-1	26	-1	-1	-1	36	1	-1	-1	-1	-1	32	-1	-1	-1	-1	-1	-1	-1	-1	-1
-1	-1	-1	-1	-1	-1	-1	-1	-1	-1	-1	-1	-1	7	-1	-1	-1	-1	-1	-1	-1	-1	-1	-1	-1	26	-1	-1	-1	-1	10	-1	-1	-1	-1	-1
13	-1	-1	-1	-1	-1	22	-1	-1	-1	-1	-1	-1	-1	-1	-1	-1	-1	-1	-1	-1	-1	-1	30	-1	-1	-1	-1	-1	-1	-1	-1	34	-1	-1	-1
36	-1	-1	-1	-1	-1	-1	-1	21	-1	-1	-1	-1	-1	-1	-1	-1	-1	-1	-1	-1	-1	31	15	-1	-1	-1	-1	-1	-1	-1	33	-1	-1	-1	-1
-1	-1	-1	16	-1	26	-1	9	-1	-1	-1	-1	-1	-1	-1	-1	11	-1	24	-1	-1	-1	28	36	-1	-1	-1	-1	-1	-1	-1	-1	29	-1	-1	-1
4	-1	-1	-1	-1	28	16	-1	-1	-1	32	-1	-1	-1	-1	18	-1	22	-1	-1	-1	-1	34	-1	-1	-1	-1	-1	24	-1	-1	-1	-1	-1	-1	-1
-1	-1	17	34	-1	-1	25	-1	24	10	-1	-1	-1	-1	-1	-1	-1	-1	-1	-1	9	-1	-1	-1	-1	-1	-1	31	-1	-1	-1	-1	-1	-1	-1	-1
-1	-1	-1	-1	-1	-1	-1	-1	-1	-1	-1	-1	-1	25	-1	-1	-1	-1	-1	-1	-1	-1	-1	-1	18	-1	-1	-1	17	-1	-1	-1	10	-1	-1	-1
-1	-1	-1	-1	-1	-1	-1	-1	-1	3	-1	29	-1	-1	-1	-1	-1	-1	-1	-1	-1	-1	-1	-1	-1	4	-1	8	-1	-1	-1	26	33	-1	-1	-1
-1	-1	-1	-1	-1	-1	-1	36	-1	20	-1	-1	-1	-1	-1	29	-1	-1	-1	-1	-1	-1	-1	-1	-1	-1	-1	-1	-1	-1	-1	-1	-1	-1	24	-1
